p cnf 21 80
c p weight 12 0 0
c p weight -12 1 0
c p weight 13 1.0 0
c p weight -13 1 0
8 -7 5 0
8 -7 6 0
-8 7 5 0
-8 7 6 0
8 7 -5 -6 0
-8 -7 -5 -6 0
9 5 -6 0
9 -5 6 0
-9 5 6 0
-9 -5 -6 0
10 11 -8 0
10 -8 9 0
-10 11 8 0
-10 8 9 0
10 -8 -5 0
-10 8 -5 0
10 -11 8 5 -9 0
-10 -11 -8 5 -9 0
11 -5 9 0
-11 5 9 0
-12 9 0
11 -12 -5 0
-11 -12 5 0
11 12 5 -9 0
-11 12 -5 -9 0
-13 9 0
11 -13 5 0
-11 -13 -5 0
11 13 -5 -9 0
-11 13 5 -9 0
14 -10 11 0
14 -10 9 0
-14 10 11 0
-14 10 9 0
14 10 -11 -9 0
-14 -10 -11 -9 0
15 11 -9 0
15 -11 9 0
-15 11 9 0
-15 -11 -9 0
16 -14 11 0
16 -14 4 0
-16 14 11 0
-16 14 4 0
16 -14 3 -15 0
16 -14 -3 15 0
-16 14 3 -15 0
-16 14 -3 15 0
16 14 -11 3 15 -4 0
16 14 -11 -3 -15 -4 0
-16 -14 -11 3 15 -4 0
-16 -14 -11 -3 -15 -4 0
18 11 -3 0
18 -11 3 0
-18 11 3 0
-18 -11 -3 0
17 15 -4 0
17 -15 4 0
-17 15 4 0
-17 -15 -4 0
19 -16 18 0
19 -16 2 0
-19 16 18 0
-19 16 2 0
19 -16 1 -4 0
19 -16 -1 4 0
-19 16 1 -4 0
-19 16 -1 4 0
19 16 -18 1 4 -2 0
19 16 -18 -1 -4 -2 0
-19 -16 -18 1 4 -2 0
-19 -16 -18 -1 -4 -2 0
21 18 -1 0
21 -18 1 0
-21 18 1 0
-21 -18 -1 0
20 4 -2 0
20 -4 2 0
-20 4 2 0
-20 -4 -2 0
